db/data/11861339714941283151557860311990523325.z3.out
sat
-------------------
631.774638115
